* ENCODING=ISO-8859-1
NAME          CPLEX
ROWS
 N  obj1    
 G  c1      
 G  c2      
 G  c3      
 G  c4      
 G  c5      
 G  c6      
 G  c7      
 G  c8      
 G  c9      
 G  c10     
 G  c11     
 G  c12     
 G  c13     
 G  c14     
 G  c15     
 G  c16     
 G  c17     
 G  c18     
 G  c19     
 G  c20     
 G  c21     
 G  c22     
 G  c23     
 G  c24     
 G  c25     
 G  c26     
 G  c27     
 G  c28     
 G  c29     
 G  c30     
 G  c31     
 G  c32     
 G  c33     
 G  c34     
 G  c35     
 G  c36     
 G  c37     
 G  c38     
 G  c39     
 G  c40     
 G  c41     
 G  c42     
 G  c43     
 G  c44     
 G  c45     
 G  c46     
 G  c47     
 G  c48     
 G  c49     
 G  c50     
COLUMNS
    MARK0000  'MARKER'                 'INTORG'
    x1        obj1                            1
    x1        c2                            795
    x1        c13                           736
    x1        c40                           740
    x2        obj1                            1
    x2        c3                            269
    x2        c4                            647
    x2        c15                           599
    x2        c19                           357
    x2        c20                           956
    x2        c26                           475
    x2        c31                           477
    x2        c42                           561
    x3        obj1                            1
    x3        c3                            167
    x3        c40                           729
    x3        c48                           624
    x4        obj1                            1
    x4        c7                            998
    x4        c10                           457
    x4        c16                           531
    x4        c26                           144
    x4        c30                           278
    x4        c31                           168
    x4        c32                           173
    x4        c33                           575
    x4        c34                           567
    x4        c37                           220
    x4        c42                           359
    x4        c48                           420
    x5        obj1                            1
    x5        c2                            237
    x5        c18                           561
    x5        c35                           157
    x5        c46                           249
    x5        c48                           502
    x5        c50                           430
    x6        obj1                            1
    x6        c16                           747
    x6        c23                           404
    x6        c28                           272
    x6        c32                           407
    x6        c34                           140
    x6        c45                           575
    x7        obj1                            1
    x7        c25                           713
    x7        c32                           635
    x7        c35                           185
    x7        c46                           991
    x8        obj1                            1
    x8        c1                            478
    x8        c14                           240
    x8        c32                           977
    x8        c39                           216
    x8        c43                           353
    x8        c44                           112
    x8        c45                           587
    x9        obj1                            1
    x9        c10                           760
    x9        c17                           597
    x9        c24                           608
    x9        c25                           384
    x10       obj1                            1
    x10       c9                            486
    x10       c22                           989
    x10       c41                           432
    x10       c43                           292
    x11       obj1                            1
    x11       c10                           970
    x11       c12                           174
    x12       obj1                            1
    x12       c2                            747
    x12       c6                            763
    x12       c10                           662
    x12       c16                           397
    x12       c22                           877
    x12       c24                           519
    x12       c36                           503
    x12       c40                           657
    x13       obj1                            1
    x13       c1                            696
    x13       c6                            878
    x13       c13                           459
    x13       c30                           632
    x13       c33                           981
    x13       c35                           517
    x13       c38                           786
    x13       c50                           565
    x14       obj1                            1
    x14       c8                            808
    x14       c12                           337
    x14       c16                           613
    x14       c27                           814
    x14       c31                           804
    x14       c43                           733
    x14       c46                           770
    x15       obj1                            1
    x15       c11                           950
    x15       c41                           539
    x16       obj1                            1
    x16       c11                           163
    x16       c14                           685
    x16       c19                           990
    x16       c20                           269
    x17       obj1                            1
    x17       c25                           927
    x17       c28                           905
    x17       c29                           659
    x17       c30                           235
    x17       c36                           164
    x17       c42                           440
    x17       c43                           497
    x18       obj1                            1
    x18       c2                            358
    x18       c4                            382
    x18       c25                           165
    x18       c26                           418
    x18       c30                           889
    x18       c33                           468
    x19       obj1                            1
    x19       c3                            139
    x19       c13                           713
    x19       c16                           284
    x19       c24                           252
    x19       c31                           672
    x19       c32                           319
    x19       c49                           868
    x20       obj1                            1
    x20       c5                            522
    x20       c44                           414
    x21       obj1                            1
    x21       c3                            527
    x21       c10                           445
    x21       c28                           118
    x21       c47                           562
    x22       obj1                            1
    x22       c9                            291
    x22       c12                           235
    x22       c14                           731
    x22       c29                           661
    x22       c38                           992
    x22       c39                           288
    x23       obj1                            1
    x23       c36                           745
    x24       obj1                            1
    x24       c2                            980
    x24       c29                           124
    x24       c36                           744
    x24       c41                           234
    x24       c42                           923
    x25       obj1                            1
    x25       c38                           454
    x25       c41                           122
    x25       c46                           916
    x26       obj1                            1
    x26       c24                           729
    x26       c26                           534
    x26       c31                           982
    x26       c42                           441
    x27       obj1                            1
    x27       c6                            149
    x27       c11                           938
    x27       c14                           112
    x27       c28                           640
    x27       c34                           784
    x27       c45                           526
    x28       obj1                            1
    x28       c14                           465
    x28       c18                           991
    x28       c22                           255
    x28       c26                           408
    x28       c36                           807
    x28       c47                           825
    x29       obj1                            1
    x29       c7                            381
    x29       c9                            211
    x29       c21                           287
    x29       c44                           941
    x30       obj1                            1
    x30       c4                            827
    x30       c24                           412
    x30       c25                           626
    x30       c32                           890
    x30       c35                           611
    x30       c37                           806
    x30       c39                           574
    x30       c50                           559
    x31       obj1                            1
    x31       c3                            742
    x31       c11                           645
    x31       c14                           299
    x31       c44                           697
    x32       obj1                            1
    x32       c21                           116
    x32       c23                           724
    x32       c29                           844
    x32       c42                           728
    x32       c47                           208
    x33       obj1                            1
    x33       c7                            619
    x33       c15                           351
    x33       c34                           656
    x33       c45                           463
    x33       c48                           442
    x34       obj1                            1
    x34       c14                           780
    x34       c22                           842
    x34       c35                           497
    x34       c38                           139
    x34       c45                           264
    x35       obj1                            1
    x35       c2                            899
    x35       c4                            632
    x35       c20                           371
    x35       c23                           946
    x35       c26                           736
    x35       c31                           553
    x35       c46                           172
    x36       obj1                            1
    x36       c45                           953
    x36       c48                           246
    x37       obj1                            1
    x37       c1                            762
    x37       c17                           154
    x37       c20                           291
    x38       obj1                            1
    x38       c18                           747
    x39       obj1                            1
    x39       c30                           303
    x39       c34                           771
    x39       c40                           129
    x39       c45                           576
    x40       obj1                            1
    x40       c1                            140
    x40       c8                            335
    x40       c10                           117
    x40       c13                           319
    x40       c17                           284
    x40       c29                           815
    x40       c30                           905
    x40       c32                           216
    x40       c33                           433
    x40       c39                           964
    x40       c46                           198
    x40       c49                           544
    x41       obj1                            1
    x41       c5                            108
    x41       c12                           115
    x41       c28                           552
    x41       c37                           486
    x41       c41                           935
    x42       obj1                            1
    x42       c4                            437
    x42       c9                            768
    x42       c49                           184
    x42       c50                           776
    x43       obj1                            1
    x43       c3                            706
    x43       c7                            622
    x43       c8                            263
    x43       c10                           999
    x43       c30                           805
    x43       c35                           777
    x43       c40                           599
    x44       obj1                            1
    x44       c15                           362
    x44       c18                           863
    x44       c21                           223
    x44       c23                           747
    x44       c27                           139
    x45       obj1                            1
    x45       c5                            605
    x45       c7                            769
    x45       c28                           673
    x45       c33                           665
    x45       c40                           795
    x46       obj1                            1
    x46       c16                           113
    x46       c25                           330
    x46       c29                           906
    x47       obj1                            1
    x47       c27                           345
    x47       c34                           560
    x47       c48                           862
    x47       c50                           921
    x48       obj1                            1
    x48       c34                           252
    x48       c41                           485
    x48       c50                           688
    x49       obj1                            1
    x49       c9                            261
    x49       c16                           195
    x49       c19                           701
    x49       c26                           253
    x50       obj1                            1
    x50       c39                           321
    MARK0001  'MARKER'                 'INTEND'
RHS
    rhs       c1                           1038
    rhs       c2                           2008
    rhs       c3                           1275
    rhs       c4                           1463
    rhs       c5                            618
    rhs       c6                            895
    rhs       c7                           1695
    rhs       c8                            703
    rhs       c9                           1009
    rhs       c10                          2205
    rhs       c11                          1348
    rhs       c12                           431
    rhs       c13                          1114
    rhs       c14                          1656
    rhs       c15                           656
    rhs       c16                          1440
    rhs       c17                           518
    rhs       c18                          1581
    rhs       c19                          1024
    rhs       c20                           944
    rhs       c21                           313
    rhs       c22                          1482
    rhs       c23                          1411
    rhs       c24                          1260
    rhs       c25                          1573
    rhs       c26                          1484
    rhs       c27                           649
    rhs       c28                          1580
    rhs       c29                          2005
    rhs       c30                          2024
    rhs       c31                          1828
    rhs       c32                          1809
    rhs       c33                          1561
    rhs       c34                          1865
    rhs       c35                          1372
    rhs       c36                          1482
    rhs       c37                           756
    rhs       c38                          1186
    rhs       c39                          1182
    rhs       c40                          1825
    rhs       c41                          1374
    rhs       c42                          1726
    rhs       c43                           938
    rhs       c44                          1082
    rhs       c45                          1972
    rhs       c46                          1648
    rhs       c47                           798
    rhs       c48                          1548
    rhs       c49                           798
    rhs       c50                          1970
BOUNDS
 LI bnd       x1        0
 LI bnd       x2        0
 LI bnd       x3        0
 LI bnd       x4        0
 LI bnd       x5        0
 LI bnd       x6        0
 LI bnd       x7        0
 LI bnd       x8        0
 LI bnd       x9        0
 LI bnd       x10       0
 LI bnd       x11       0
 LI bnd       x12       0
 LI bnd       x13       0
 LI bnd       x14       0
 LI bnd       x15       0
 LI bnd       x16       0
 LI bnd       x17       0
 LI bnd       x18       0
 LI bnd       x19       0
 LI bnd       x20       0
 LI bnd       x21       0
 LI bnd       x22       0
 LI bnd       x23       0
 LI bnd       x24       0
 LI bnd       x25       0
 LI bnd       x26       0
 LI bnd       x27       0
 LI bnd       x28       0
 LI bnd       x29       0
 LI bnd       x30       0
 LI bnd       x31       0
 LI bnd       x32       0
 LI bnd       x33       0
 LI bnd       x34       0
 LI bnd       x35       0
 LI bnd       x36       0
 LI bnd       x37       0
 LI bnd       x38       0
 LI bnd       x39       0
 LI bnd       x40       0
 LI bnd       x41       0
 LI bnd       x42       0
 LI bnd       x43       0
 LI bnd       x44       0
 LI bnd       x45       0
 LI bnd       x46       0
 LI bnd       x47       0
 LI bnd       x48       0
 LI bnd       x49       0
 LI bnd       x50       0
ENDATA
